c File: data_files/evolved_graphs/g3658.col
c
c Auto generated graph
c
p edge 100 2632
e 1 3
e 1 5
e 1 6
e 1 7
e 1 8
e 1 9
e 1 10
e 1 12
e 1 13
e 1 15
e 1 16
e 1 17
e 1 22
e 1 46
e 1 61
e 2 6
e 2 9
e 2 11
e 2 12
e 2 13
e 2 14
e 2 15
e 2 16
e 2 17
e 2 48
e 2 82
e 3 4
e 3 5
e 3 6
e 3 8
e 3 9
e 3 10
e 3 15
e 3 16
e 3 17
e 3 18
e 3 51
e 3 56
e 3 91
e 3 96
e 4 5
e 4 6
e 4 7
e 4 8
e 4 9
e 4 10
e 4 11
e 4 12
e 4 13
e 4 16
e 4 17
e 4 18
e 4 74
e 5 6
e 5 8
e 5 9
e 5 10
e 5 14
e 5 17
e 5 18
e 5 33
e 6 7
e 6 8
e 6 9
e 6 10
e 6 11
e 6 12
e 6 13
e 6 14
e 6 16
e 6 17
e 6 18
e 6 52
e 6 82
e 7 8
e 7 9
e 7 10
e 7 11
e 7 12
e 7 15
e 7 16
e 7 17
e 7 18
e 7 49
e 7 54
e 7 55
e 7 69
e 8 9
e 8 11
e 8 12
e 8 13
e 8 14
e 8 15
e 8 16
e 8 17
e 8 18
e 8 20
e 9 10
e 9 11
e 9 12
e 9 13
e 9 14
e 9 15
e 9 17
e 9 18
e 9 94
e 10 11
e 10 12
e 10 14
e 10 15
e 10 16
e 10 17
e 10 83
e 11 12
e 11 13
e 11 14
e 11 16
e 11 17
e 11 18
e 11 20
e 11 87
e 12 13
e 12 14
e 12 15
e 12 18
e 12 24
e 12 31
e 12 35
e 13 15
e 13 16
e 13 17
e 13 18
e 13 95
e 14 15
e 14 16
e 14 17
e 14 18
e 14 34
e 14 38
e 14 65
e 15 32
e 15 43
e 15 89
e 15 100
e 16 17
e 16 18
e 17 47
e 17 68
e 18 23
e 18 93
e 19 22
e 19 23
e 19 24
e 19 26
e 19 28
e 19 31
e 19 32
e 19 34
e 19 35
e 19 36
e 19 38
e 19 42
e 19 43
e 19 44
e 19 45
e 19 48
e 19 49
e 19 51
e 19 52
e 19 53
e 19 54
e 19 55
e 19 58
e 19 60
e 19 61
e 19 63
e 19 64
e 19 65
e 19 66
e 19 69
e 19 70
e 19 71
e 19 72
e 19 73
e 19 74
e 19 75
e 19 76
e 19 78
e 19 79
e 19 80
e 19 81
e 19 82
e 19 83
e 19 84
e 19 85
e 19 86
e 19 87
e 19 88
e 19 89
e 19 90
e 19 92
e 19 93
e 19 94
e 19 95
e 19 96
e 19 97
e 19 98
e 19 100
e 20 21
e 20 22
e 20 25
e 20 26
e 20 28
e 20 29
e 20 30
e 20 31
e 20 32
e 20 34
e 20 35
e 20 36
e 20 37
e 20 38
e 20 39
e 20 41
e 20 42
e 20 43
e 20 44
e 20 45
e 20 46
e 20 49
e 20 51
e 20 52
e 20 53
e 20 54
e 20 55
e 20 56
e 20 58
e 20 59
e 20 60
e 20 62
e 20 63
e 20 64
e 20 65
e 20 66
e 20 68
e 20 70
e 20 71
e 20 74
e 20 76
e 20 78
e 20 79
e 20 80
e 20 82
e 20 83
e 20 84
e 20 87
e 20 88
e 20 89
e 20 90
e 20 91
e 20 92
e 20 94
e 20 95
e 20 97
e 20 98
e 20 100
e 21 23
e 21 24
e 21 25
e 21 26
e 21 28
e 21 29
e 21 30
e 21 31
e 21 33
e 21 34
e 21 35
e 21 37
e 21 40
e 21 41
e 21 42
e 21 43
e 21 45
e 21 46
e 21 47
e 21 49
e 21 51
e 21 52
e 21 53
e 21 54
e 21 56
e 21 57
e 21 58
e 21 60
e 21 61
e 21 63
e 21 64
e 21 65
e 21 66
e 21 67
e 21 68
e 21 69
e 21 70
e 21 71
e 21 73
e 21 75
e 21 76
e 21 77
e 21 79
e 21 80
e 21 81
e 21 82
e 21 84
e 21 86
e 21 87
e 21 88
e 21 89
e 21 93
e 21 95
e 21 96
e 21 97
e 21 98
e 21 99
e 21 100
e 22 23
e 22 24
e 22 25
e 22 26
e 22 28
e 22 29
e 22 30
e 22 31
e 22 32
e 22 33
e 22 36
e 22 38
e 22 39
e 22 40
e 22 42
e 22 43
e 22 44
e 22 45
e 22 47
e 22 50
e 22 51
e 22 52
e 22 53
e 22 54
e 22 55
e 22 56
e 22 58
e 22 59
e 22 61
e 22 62
e 22 63
e 22 65
e 22 66
e 22 68
e 22 69
e 22 70
e 22 72
e 22 73
e 22 75
e 22 76
e 22 79
e 22 80
e 22 81
e 22 82
e 22 84
e 22 85
e 22 86
e 22 87
e 22 88
e 22 89
e 22 90
e 22 91
e 22 92
e 22 94
e 22 96
e 22 97
e 22 98
e 22 99
e 23 24
e 23 25
e 23 26
e 23 29
e 23 30
e 23 31
e 23 32
e 23 33
e 23 34
e 23 36
e 23 38
e 23 41
e 23 43
e 23 44
e 23 45
e 23 46
e 23 47
e 23 49
e 23 50
e 23 51
e 23 53
e 23 54
e 23 55
e 23 56
e 23 57
e 23 59
e 23 60
e 23 61
e 23 63
e 23 64
e 23 67
e 23 68
e 23 69
e 23 70
e 23 71
e 23 73
e 23 74
e 23 75
e 23 76
e 23 77
e 23 79
e 23 80
e 23 82
e 23 84
e 23 85
e 23 86
e 23 87
e 23 89
e 23 90
e 23 91
e 23 94
e 23 95
e 23 97
e 23 99
e 24 25
e 24 27
e 24 28
e 24 31
e 24 32
e 24 33
e 24 34
e 24 36
e 24 37
e 24 38
e 24 40
e 24 41
e 24 42
e 24 43
e 24 44
e 24 46
e 24 47
e 24 48
e 24 49
e 24 51
e 24 52
e 24 53
e 24 54
e 24 55
e 24 56
e 24 57
e 24 58
e 24 59
e 24 61
e 24 62
e 24 63
e 24 64
e 24 66
e 24 67
e 24 68
e 24 69
e 24 70
e 24 71
e 24 72
e 24 73
e 24 74
e 24 75
e 24 76
e 24 78
e 24 79
e 24 80
e 24 81
e 24 82
e 24 84
e 24 85
e 24 86
e 24 87
e 24 89
e 24 91
e 24 92
e 24 93
e 24 94
e 24 96
e 24 97
e 24 99
e 24 100
e 25 26
e 25 28
e 25 29
e 25 30
e 25 32
e 25 33
e 25 34
e 25 35
e 25 37
e 25 38
e 25 39
e 25 41
e 25 42
e 25 43
e 25 45
e 25 46
e 25 47
e 25 48
e 25 49
e 25 50
e 25 51
e 25 52
e 25 54
e 25 55
e 25 56
e 25 57
e 25 59
e 25 60
e 25 61
e 25 62
e 25 63
e 25 64
e 25 65
e 25 67
e 25 70
e 25 73
e 25 75
e 25 76
e 25 78
e 25 79
e 25 80
e 25 81
e 25 83
e 25 84
e 25 86
e 25 87
e 25 88
e 25 89
e 25 90
e 25 91
e 25 94
e 25 95
e 25 96
e 25 97
e 25 98
e 25 99
e 26 27
e 26 29
e 26 30
e 26 31
e 26 32
e 26 33
e 26 35
e 26 37
e 26 38
e 26 39
e 26 40
e 26 41
e 26 42
e 26 44
e 26 45
e 26 46
e 26 47
e 26 49
e 26 52
e 26 53
e 26 54
e 26 55
e 26 56
e 26 57
e 26 58
e 26 59
e 26 60
e 26 61
e 26 62
e 26 63
e 26 64
e 26 66
e 26 67
e 26 68
e 26 69
e 26 70
e 26 71
e 26 74
e 26 76
e 26 78
e 26 79
e 26 80
e 26 82
e 26 84
e 26 85
e 26 86
e 26 87
e 26 88
e 26 90
e 26 91
e 26 92
e 26 94
e 26 95
e 26 96
e 26 97
e 26 98
e 26 99
e 27 28
e 27 29
e 27 30
e 27 31
e 27 32
e 27 33
e 27 35
e 27 37
e 27 38
e 27 39
e 27 40
e 27 41
e 27 42
e 27 43
e 27 44
e 27 45
e 27 46
e 27 48
e 27 49
e 27 51
e 27 53
e 27 57
e 27 58
e 27 59
e 27 60
e 27 61
e 27 62
e 27 63
e 27 64
e 27 67
e 27 68
e 27 69
e 27 72
e 27 73
e 27 74
e 27 75
e 27 78
e 27 80
e 27 81
e 27 82
e 27 84
e 27 85
e 27 86
e 27 87
e 27 89
e 27 90
e 27 91
e 27 92
e 27 93
e 27 94
e 27 95
e 27 97
e 27 98
e 27 99
e 27 100
e 28 30
e 28 31
e 28 33
e 28 35
e 28 36
e 28 38
e 28 39
e 28 41
e 28 44
e 28 49
e 28 50
e 28 51
e 28 53
e 28 54
e 28 55
e 28 56
e 28 58
e 28 60
e 28 61
e 28 63
e 28 65
e 28 66
e 28 67
e 28 68
e 28 70
e 28 74
e 28 75
e 28 78
e 28 79
e 28 80
e 28 81
e 28 82
e 28 83
e 28 84
e 28 85
e 28 86
e 28 87
e 28 88
e 28 90
e 28 91
e 28 92
e 28 95
e 28 96
e 28 97
e 28 98
e 28 99
e 28 100
e 29 31
e 29 32
e 29 33
e 29 35
e 29 36
e 29 37
e 29 38
e 29 40
e 29 41
e 29 42
e 29 43
e 29 44
e 29 45
e 29 46
e 29 49
e 29 50
e 29 51
e 29 52
e 29 53
e 29 54
e 29 55
e 29 56
e 29 57
e 29 58
e 29 60
e 29 61
e 29 62
e 29 63
e 29 64
e 29 65
e 29 69
e 29 70
e 29 71
e 29 72
e 29 73
e 29 74
e 29 75
e 29 76
e 29 78
e 29 79
e 29 82
e 29 83
e 29 84
e 29 85
e 29 86
e 29 87
e 29 88
e 29 90
e 29 91
e 29 92
e 29 93
e 29 94
e 29 95
e 29 96
e 29 97
e 29 98
e 29 99
e 29 100
e 30 31
e 30 32
e 30 33
e 30 34
e 30 35
e 30 37
e 30 38
e 30 40
e 30 41
e 30 42
e 30 43
e 30 44
e 30 47
e 30 48
e 30 49
e 30 50
e 30 52
e 30 53
e 30 54
e 30 55
e 30 56
e 30 59
e 30 60
e 30 61
e 30 62
e 30 63
e 30 65
e 30 66
e 30 68
e 30 69
e 30 72
e 30 75
e 30 76
e 30 77
e 30 78
e 30 79
e 30 80
e 30 81
e 30 82
e 30 83
e 30 84
e 30 85
e 30 86
e 30 87
e 30 88
e 30 89
e 30 90
e 30 91
e 30 93
e 30 94
e 30 98
e 30 100
e 31 32
e 31 33
e 31 34
e 31 35
e 31 37
e 31 38
e 31 39
e 31 41
e 31 43
e 31 44
e 31 45
e 31 46
e 31 47
e 31 48
e 31 49
e 31 50
e 31 51
e 31 52
e 31 53
e 31 54
e 31 55
e 31 56
e 31 57
e 31 59
e 31 60
e 31 61
e 31 62
e 31 63
e 31 64
e 31 66
e 31 68
e 31 69
e 31 70
e 31 71
e 31 72
e 31 74
e 31 75
e 31 76
e 31 77
e 31 78
e 31 82
e 31 83
e 31 84
e 31 85
e 31 86
e 31 87
e 31 88
e 31 89
e 31 90
e 31 91
e 31 93
e 31 95
e 31 96
e 31 97
e 31 98
e 31 99
e 31 100
e 32 34
e 32 35
e 32 36
e 32 37
e 32 38
e 32 40
e 32 42
e 32 43
e 32 44
e 32 45
e 32 46
e 32 48
e 32 49
e 32 50
e 32 51
e 32 52
e 32 54
e 32 55
e 32 57
e 32 58
e 32 59
e 32 60
e 32 62
e 32 63
e 32 65
e 32 66
e 32 67
e 32 68
e 32 69
e 32 70
e 32 71
e 32 76
e 32 77
e 32 78
e 32 80
e 32 81
e 32 82
e 32 83
e 32 84
e 32 85
e 32 86
e 32 87
e 32 88
e 32 89
e 32 90
e 32 91
e 32 92
e 32 93
e 32 94
e 32 95
e 32 96
e 32 97
e 32 98
e 33 34
e 33 36
e 33 38
e 33 39
e 33 40
e 33 41
e 33 43
e 33 44
e 33 45
e 33 47
e 33 48
e 33 49
e 33 51
e 33 54
e 33 56
e 33 57
e 33 58
e 33 59
e 33 60
e 33 61
e 33 62
e 33 63
e 33 64
e 33 65
e 33 66
e 33 67
e 33 68
e 33 69
e 33 70
e 33 71
e 33 74
e 33 75
e 33 76
e 33 77
e 33 79
e 33 81
e 33 82
e 33 83
e 33 84
e 33 85
e 33 86
e 33 87
e 33 88
e 33 89
e 33 90
e 33 92
e 33 93
e 33 94
e 33 95
e 33 97
e 33 98
e 33 99
e 33 100
e 34 35
e 34 36
e 34 37
e 34 38
e 34 40
e 34 41
e 34 42
e 34 43
e 34 45
e 34 46
e 34 47
e 34 48
e 34 49
e 34 50
e 34 51
e 34 52
e 34 54
e 34 55
e 34 56
e 34 57
e 34 60
e 34 62
e 34 63
e 34 64
e 34 65
e 34 66
e 34 68
e 34 69
e 34 72
e 34 73
e 34 74
e 34 75
e 34 77
e 34 78
e 34 79
e 34 82
e 34 84
e 34 85
e 34 86
e 34 87
e 34 88
e 34 89
e 34 90
e 34 91
e 34 92
e 34 93
e 34 95
e 34 96
e 34 97
e 34 99
e 34 100
e 35 36
e 35 37
e 35 38
e 35 39
e 35 40
e 35 42
e 35 44
e 35 45
e 35 46
e 35 48
e 35 49
e 35 50
e 35 51
e 35 52
e 35 56
e 35 58
e 35 59
e 35 61
e 35 64
e 35 65
e 35 66
e 35 67
e 35 69
e 35 70
e 35 71
e 35 72
e 35 73
e 35 74
e 35 75
e 35 76
e 35 77
e 35 78
e 35 80
e 35 81
e 35 82
e 35 83
e 35 84
e 35 85
e 35 86
e 35 89
e 35 90
e 35 91
e 35 93
e 35 94
e 35 95
e 35 96
e 35 97
e 35 99
e 35 100
e 36 37
e 36 38
e 36 39
e 36 40
e 36 41
e 36 42
e 36 43
e 36 44
e 36 45
e 36 46
e 36 48
e 36 50
e 36 51
e 36 52
e 36 54
e 36 55
e 36 56
e 36 57
e 36 58
e 36 60
e 36 61
e 36 62
e 36 64
e 36 65
e 36 66
e 36 67
e 36 69
e 36 70
e 36 73
e 36 74
e 36 75
e 36 77
e 36 78
e 36 81
e 36 82
e 36 83
e 36 84
e 36 85
e 36 88
e 36 89
e 36 90
e 36 91
e 36 92
e 36 93
e 36 95
e 36 97
e 36 98
e 37 38
e 37 39
e 37 40
e 37 41
e 37 42
e 37 43
e 37 44
e 37 45
e 37 46
e 37 47
e 37 48
e 37 49
e 37 55
e 37 56
e 37 58
e 37 59
e 37 61
e 37 62
e 37 63
e 37 64
e 37 68
e 37 70
e 37 71
e 37 73
e 37 74
e 37 75
e 37 77
e 37 78
e 37 79
e 37 80
e 37 81
e 37 82
e 37 84
e 37 85
e 37 86
e 37 88
e 37 89
e 37 91
e 37 92
e 37 93
e 37 94
e 37 98
e 37 99
e 37 100
e 38 42
e 38 44
e 38 45
e 38 48
e 38 49
e 38 51
e 38 53
e 38 54
e 38 55
e 38 56
e 38 57
e 38 58
e 38 62
e 38 63
e 38 64
e 38 65
e 38 67
e 38 69
e 38 70
e 38 71
e 38 74
e 38 75
e 38 76
e 38 77
e 38 78
e 38 81
e 38 82
e 38 83
e 38 84
e 38 86
e 38 87
e 38 89
e 38 90
e 38 91
e 38 93
e 38 94
e 38 95
e 38 96
e 38 97
e 38 98
e 38 100
e 39 40
e 39 41
e 39 46
e 39 47
e 39 49
e 39 51
e 39 52
e 39 53
e 39 54
e 39 57
e 39 58
e 39 60
e 39 61
e 39 62
e 39 63
e 39 65
e 39 68
e 39 69
e 39 71
e 39 72
e 39 73
e 39 75
e 39 76
e 39 77
e 39 78
e 39 79
e 39 80
e 39 81
e 39 82
e 39 83
e 39 84
e 39 85
e 39 86
e 39 90
e 39 91
e 39 92
e 39 93
e 39 94
e 39 95
e 39 96
e 39 97
e 39 98
e 39 99
e 39 100
e 40 42
e 40 43
e 40 44
e 40 45
e 40 46
e 40 47
e 40 49
e 40 50
e 40 51
e 40 52
e 40 53
e 40 54
e 40 55
e 40 56
e 40 57
e 40 59
e 40 60
e 40 62
e 40 63
e 40 64
e 40 66
e 40 68
e 40 69
e 40 70
e 40 73
e 40 74
e 40 75
e 40 77
e 40 78
e 40 79
e 40 80
e 40 82
e 40 85
e 40 86
e 40 87
e 40 88
e 40 90
e 40 91
e 40 92
e 40 94
e 40 95
e 40 96
e 40 97
e 40 98
e 40 100
e 41 43
e 41 44
e 41 45
e 41 46
e 41 47
e 41 48
e 41 49
e 41 50
e 41 52
e 41 53
e 41 54
e 41 56
e 41 57
e 41 58
e 41 59
e 41 60
e 41 61
e 41 62
e 41 63
e 41 64
e 41 65
e 41 66
e 41 67
e 41 68
e 41 69
e 41 70
e 41 71
e 41 72
e 41 73
e 41 78
e 41 79
e 41 81
e 41 85
e 41 86
e 41 87
e 41 89
e 41 91
e 41 92
e 41 93
e 41 94
e 41 96
e 41 97
e 41 98
e 41 99
e 41 100
e 42 43
e 42 44
e 42 45
e 42 46
e 42 47
e 42 48
e 42 49
e 42 50
e 42 51
e 42 52
e 42 53
e 42 55
e 42 56
e 42 57
e 42 61
e 42 62
e 42 63
e 42 64
e 42 66
e 42 67
e 42 68
e 42 69
e 42 71
e 42 72
e 42 73
e 42 74
e 42 76
e 42 78
e 42 79
e 42 81
e 42 82
e 42 83
e 42 85
e 42 89
e 42 90
e 42 91
e 42 93
e 42 94
e 42 95
e 42 96
e 42 98
e 42 99
e 42 100
e 43 44
e 43 46
e 43 47
e 43 48
e 43 49
e 43 50
e 43 51
e 43 52
e 43 53
e 43 55
e 43 56
e 43 57
e 43 59
e 43 60
e 43 61
e 43 63
e 43 64
e 43 65
e 43 67
e 43 68
e 43 70
e 43 71
e 43 72
e 43 73
e 43 74
e 43 76
e 43 78
e 43 79
e 43 82
e 43 83
e 43 84
e 43 85
e 43 86
e 43 87
e 43 88
e 43 89
e 43 90
e 43 91
e 43 93
e 43 94
e 43 95
e 43 98
e 44 45
e 44 47
e 44 48
e 44 49
e 44 50
e 44 53
e 44 55
e 44 56
e 44 57
e 44 58
e 44 59
e 44 60
e 44 61
e 44 62
e 44 63
e 44 64
e 44 65
e 44 66
e 44 67
e 44 70
e 44 72
e 44 74
e 44 75
e 44 76
e 44 77
e 44 78
e 44 80
e 44 82
e 44 83
e 44 84
e 44 85
e 44 86
e 44 87
e 44 88
e 44 89
e 44 90
e 44 93
e 44 94
e 44 95
e 44 96
e 44 97
e 44 99
e 44 100
e 45 46
e 45 47
e 45 48
e 45 49
e 45 50
e 45 51
e 45 52
e 45 54
e 45 56
e 45 59
e 45 60
e 45 61
e 45 62
e 45 64
e 45 65
e 45 66
e 45 67
e 45 68
e 45 69
e 45 70
e 45 71
e 45 72
e 45 74
e 45 75
e 45 76
e 45 77
e 45 78
e 45 79
e 45 80
e 45 81
e 45 82
e 45 83
e 45 84
e 45 85
e 45 87
e 45 89
e 45 93
e 45 94
e 45 95
e 45 96
e 45 97
e 45 99
e 46 47
e 46 49
e 46 50
e 46 52
e 46 55
e 46 58
e 46 60
e 46 61
e 46 62
e 46 63
e 46 64
e 46 65
e 46 69
e 46 75
e 46 76
e 46 77
e 46 78
e 46 80
e 46 82
e 46 83
e 46 84
e 46 87
e 46 89
e 46 90
e 46 92
e 46 93
e 46 94
e 46 95
e 46 96
e 46 97
e 46 98
e 46 99
e 47 48
e 47 49
e 47 50
e 47 51
e 47 53
e 47 55
e 47 56
e 47 57
e 47 58
e 47 59
e 47 60
e 47 61
e 47 62
e 47 63
e 47 64
e 47 65
e 47 66
e 47 67
e 47 68
e 47 69
e 47 70
e 47 71
e 47 73
e 47 74
e 47 76
e 47 77
e 47 78
e 47 79
e 47 81
e 47 82
e 47 84
e 47 85
e 47 86
e 47 87
e 47 88
e 47 90
e 47 92
e 47 93
e 47 96
e 47 98
e 47 99
e 47 100
e 48 49
e 48 50
e 48 51
e 48 53
e 48 54
e 48 55
e 48 56
e 48 57
e 48 58
e 48 59
e 48 61
e 48 62
e 48 63
e 48 64
e 48 65
e 48 66
e 48 69
e 48 71
e 48 72
e 48 73
e 48 74
e 48 75
e 48 76
e 48 77
e 48 80
e 48 81
e 48 83
e 48 84
e 48 85
e 48 86
e 48 87
e 48 88
e 48 89
e 48 90
e 48 91
e 48 93
e 48 94
e 48 95
e 48 96
e 48 97
e 48 98
e 48 99
e 48 100
e 49 51
e 49 52
e 49 53
e 49 54
e 49 55
e 49 56
e 49 58
e 49 59
e 49 60
e 49 61
e 49 62
e 49 63
e 49 65
e 49 66
e 49 67
e 49 68
e 49 70
e 49 71
e 49 72
e 49 73
e 49 75
e 49 76
e 49 78
e 49 79
e 49 80
e 49 81
e 49 82
e 49 83
e 49 84
e 49 85
e 49 86
e 49 87
e 49 88
e 49 90
e 49 91
e 49 92
e 49 93
e 49 94
e 49 95
e 49 96
e 49 97
e 49 98
e 49 99
e 49 100
e 50 51
e 50 52
e 50 53
e 50 54
e 50 55
e 50 56
e 50 57
e 50 58
e 50 59
e 50 60
e 50 62
e 50 63
e 50 66
e 50 67
e 50 68
e 50 69
e 50 70
e 50 71
e 50 72
e 50 73
e 50 74
e 50 75
e 50 76
e 50 77
e 50 78
e 50 80
e 50 81
e 50 82
e 50 83
e 50 84
e 50 85
e 50 86
e 50 87
e 50 90
e 50 92
e 50 93
e 50 94
e 50 95
e 50 96
e 50 97
e 50 98
e 50 100
e 51 52
e 51 53
e 51 54
e 51 56
e 51 57
e 51 58
e 51 59
e 51 60
e 51 61
e 51 62
e 51 63
e 51 64
e 51 65
e 51 66
e 51 68
e 51 69
e 51 73
e 51 74
e 51 76
e 51 77
e 51 79
e 51 80
e 51 81
e 51 82
e 51 83
e 51 85
e 51 86
e 51 87
e 51 91
e 51 93
e 51 96
e 51 97
e 51 100
e 52 53
e 52 55
e 52 56
e 52 57
e 52 58
e 52 59
e 52 60
e 52 62
e 52 63
e 52 64
e 52 67
e 52 69
e 52 70
e 52 71
e 52 72
e 52 74
e 52 76
e 52 78
e 52 79
e 52 81
e 52 82
e 52 83
e 52 84
e 52 85
e 52 86
e 52 88
e 52 89
e 52 91
e 52 93
e 52 95
e 52 96
e 52 99
e 52 100
e 53 54
e 53 55
e 53 57
e 53 58
e 53 59
e 53 60
e 53 62
e 53 63
e 53 64
e 53 65
e 53 66
e 53 68
e 53 69
e 53 71
e 53 73
e 53 74
e 53 75
e 53 76
e 53 77
e 53 78
e 53 79
e 53 80
e 53 81
e 53 82
e 53 83
e 53 84
e 53 85
e 53 86
e 53 87
e 53 88
e 53 89
e 53 90
e 53 91
e 53 92
e 53 93
e 53 94
e 53 95
e 53 97
e 53 98
e 53 99
e 53 100
e 54 58
e 54 60
e 54 61
e 54 63
e 54 64
e 54 65
e 54 66
e 54 67
e 54 69
e 54 70
e 54 71
e 54 72
e 54 73
e 54 75
e 54 76
e 54 77
e 54 78
e 54 80
e 54 81
e 54 84
e 54 85
e 54 87
e 54 88
e 54 89
e 54 90
e 54 91
e 54 92
e 54 94
e 54 95
e 54 96
e 54 97
e 54 98
e 54 99
e 55 56
e 55 58
e 55 59
e 55 60
e 55 61
e 55 62
e 55 63
e 55 64
e 55 65
e 55 66
e 55 67
e 55 68
e 55 69
e 55 71
e 55 73
e 55 74
e 55 75
e 55 76
e 55 77
e 55 78
e 55 79
e 55 80
e 55 81
e 55 82
e 55 84
e 55 86
e 55 90
e 55 91
e 55 93
e 55 95
e 55 96
e 55 97
e 55 98
e 55 100
e 56 57
e 56 58
e 56 59
e 56 60
e 56 62
e 56 63
e 56 64
e 56 65
e 56 66
e 56 67
e 56 68
e 56 69
e 56 70
e 56 71
e 56 72
e 56 73
e 56 74
e 56 75
e 56 76
e 56 77
e 56 78
e 56 82
e 56 83
e 56 84
e 56 85
e 56 86
e 56 87
e 56 88
e 56 89
e 56 91
e 56 92
e 56 93
e 56 94
e 56 95
e 56 96
e 56 97
e 56 98
e 56 99
e 57 58
e 57 59
e 57 60
e 57 61
e 57 62
e 57 63
e 57 64
e 57 65
e 57 66
e 57 67
e 57 68
e 57 69
e 57 71
e 57 73
e 57 74
e 57 75
e 57 76
e 57 77
e 57 78
e 57 79
e 57 83
e 57 85
e 57 87
e 57 88
e 57 89
e 57 90
e 57 91
e 57 92
e 57 93
e 57 94
e 57 95
e 57 96
e 57 98
e 57 100
e 58 59
e 58 60
e 58 61
e 58 62
e 58 63
e 58 64
e 58 65
e 58 66
e 58 67
e 58 69
e 58 70
e 58 71
e 58 73
e 58 74
e 58 76
e 58 77
e 58 78
e 58 80
e 58 81
e 58 83
e 58 84
e 58 86
e 58 87
e 58 90
e 58 92
e 58 93
e 58 95
e 58 96
e 58 97
e 58 98
e 58 99
e 59 62
e 59 63
e 59 64
e 59 65
e 59 66
e 59 67
e 59 68
e 59 69
e 59 73
e 59 75
e 59 77
e 59 78
e 59 79
e 59 82
e 59 84
e 59 85
e 59 86
e 59 87
e 59 88
e 59 89
e 59 90
e 59 92
e 59 93
e 59 94
e 59 96
e 59 97
e 59 98
e 59 99
e 60 62
e 60 63
e 60 65
e 60 66
e 60 67
e 60 68
e 60 70
e 60 72
e 60 73
e 60 75
e 60 76
e 60 77
e 60 78
e 60 79
e 60 80
e 60 83
e 60 84
e 60 85
e 60 88
e 60 90
e 60 92
e 60 93
e 60 95
e 60 96
e 60 97
e 60 100
e 61 62
e 61 63
e 61 64
e 61 65
e 61 66
e 61 67
e 61 68
e 61 69
e 61 70
e 61 71
e 61 74
e 61 75
e 61 76
e 61 77
e 61 78
e 61 79
e 61 80
e 61 81
e 61 82
e 61 83
e 61 85
e 61 86
e 61 88
e 61 89
e 61 90
e 61 91
e 61 92
e 61 93
e 61 94
e 61 95
e 61 98
e 61 99
e 61 100
e 62 63
e 62 64
e 62 65
e 62 70
e 62 71
e 62 72
e 62 73
e 62 74
e 62 75
e 62 76
e 62 78
e 62 79
e 62 80
e 62 81
e 62 83
e 62 84
e 62 86
e 62 88
e 62 89
e 62 91
e 62 92
e 62 93
e 62 96
e 62 98
e 62 99
e 62 100
e 63 64
e 63 66
e 63 67
e 63 68
e 63 71
e 63 72
e 63 75
e 63 76
e 63 77
e 63 78
e 63 79
e 63 80
e 63 81
e 63 82
e 63 85
e 63 86
e 63 87
e 63 90
e 63 92
e 63 93
e 63 94
e 63 96
e 63 98
e 63 99
e 63 100
e 64 65
e 64 66
e 64 67
e 64 68
e 64 71
e 64 72
e 64 73
e 64 74
e 64 75
e 64 76
e 64 77
e 64 78
e 64 79
e 64 80
e 64 82
e 64 83
e 64 84
e 64 85
e 64 86
e 64 87
e 64 89
e 64 90
e 64 92
e 64 94
e 64 95
e 64 96
e 64 97
e 64 98
e 64 99
e 64 100
e 65 66
e 65 67
e 65 68
e 65 70
e 65 72
e 65 73
e 65 74
e 65 75
e 65 76
e 65 80
e 65 82
e 65 83
e 65 84
e 65 85
e 65 86
e 65 87
e 65 88
e 65 89
e 65 90
e 65 91
e 65 92
e 65 93
e 65 95
e 65 96
e 65 98
e 65 100
e 66 67
e 66 68
e 66 69
e 66 70
e 66 71
e 66 72
e 66 73
e 66 74
e 66 75
e 66 76
e 66 77
e 66 78
e 66 79
e 66 80
e 66 82
e 66 83
e 66 85
e 66 87
e 66 88
e 66 89
e 66 90
e 66 91
e 66 94
e 66 95
e 66 97
e 66 98
e 66 100
e 67 68
e 67 69
e 67 70
e 67 72
e 67 74
e 67 76
e 67 77
e 67 78
e 67 82
e 67 85
e 67 86
e 67 88
e 67 89
e 67 90
e 67 91
e 67 92
e 67 93
e 67 94
e 67 96
e 67 97
e 67 98
e 68 70
e 68 72
e 68 73
e 68 74
e 68 75
e 68 76
e 68 77
e 68 79
e 68 81
e 68 82
e 68 83
e 68 84
e 68 85
e 68 87
e 68 88
e 68 89
e 68 91
e 68 92
e 68 95
e 68 96
e 68 97
e 68 98
e 68 99
e 68 100
e 69 70
e 69 73
e 69 74
e 69 76
e 69 77
e 69 78
e 69 79
e 69 80
e 69 81
e 69 82
e 69 84
e 69 86
e 69 87
e 69 88
e 69 90
e 69 92
e 69 93
e 69 94
e 69 96
e 69 97
e 69 98
e 69 99
e 69 100
e 70 71
e 70 73
e 70 75
e 70 76
e 70 77
e 70 81
e 70 82
e 70 83
e 70 84
e 70 85
e 70 86
e 70 87
e 70 88
e 70 89
e 70 90
e 70 91
e 70 93
e 70 95
e 70 96
e 70 97
e 70 99
e 71 72
e 71 73
e 71 74
e 71 75
e 71 77
e 71 78
e 71 79
e 71 80
e 71 81
e 71 82
e 71 83
e 71 84
e 71 85
e 71 86
e 71 87
e 71 88
e 71 89
e 71 90
e 71 92
e 71 94
e 71 95
e 71 96
e 71 97
e 71 98
e 71 99
e 71 100
e 72 74
e 72 75
e 72 77
e 72 80
e 72 82
e 72 83
e 72 85
e 72 86
e 72 87
e 72 90
e 72 91
e 72 92
e 72 93
e 72 95
e 72 96
e 72 98
e 72 99
e 73 74
e 73 75
e 73 76
e 73 77
e 73 78
e 73 79
e 73 80
e 73 82
e 73 84
e 73 85
e 73 86
e 73 87
e 73 88
e 73 90
e 73 91
e 73 92
e 73 93
e 73 94
e 73 96
e 73 98
e 73 99
e 73 100
e 74 75
e 74 79
e 74 80
e 74 81
e 74 84
e 74 85
e 74 87
e 74 88
e 74 89
e 74 90
e 74 91
e 74 98
e 74 99
e 74 100
e 75 76
e 75 77
e 75 78
e 75 80
e 75 82
e 75 83
e 75 86
e 75 87
e 75 88
e 75 89
e 75 90
e 75 91
e 75 92
e 75 93
e 75 94
e 75 96
e 75 97
e 76 78
e 76 79
e 76 82
e 76 83
e 76 84
e 76 85
e 76 87
e 76 90
e 76 91
e 76 92
e 76 93
e 76 94
e 76 95
e 76 96
e 76 98
e 76 100
e 77 78
e 77 79
e 77 80
e 77 81
e 77 82
e 77 83
e 77 84
e 77 86
e 77 88
e 77 89
e 77 90
e 77 91
e 77 92
e 77 94
e 77 95
e 77 96
e 77 97
e 77 99
e 77 100
e 78 80
e 78 81
e 78 83
e 78 85
e 78 86
e 78 87
e 78 88
e 78 90
e 78 91
e 78 93
e 78 95
e 78 96
e 78 97
e 78 98
e 78 99
e 79 80
e 79 81
e 79 82
e 79 83
e 79 85
e 79 86
e 79 87
e 79 88
e 79 89
e 79 90
e 79 91
e 79 93
e 79 94
e 79 95
e 79 96
e 79 97
e 79 98
e 79 99
e 79 100
e 80 83
e 80 84
e 80 86
e 80 87
e 80 88
e 80 91
e 80 92
e 80 93
e 80 94
e 80 95
e 80 96
e 80 97
e 80 98
e 80 99
e 80 100
e 81 82
e 81 83
e 81 85
e 81 86
e 81 88
e 81 89
e 81 91
e 81 92
e 81 94
e 81 95
e 81 96
e 81 97
e 81 98
e 81 99
e 81 100
e 82 84
e 82 85
e 82 87
e 82 88
e 82 89
e 82 90
e 82 91
e 82 92
e 82 93
e 82 100
e 83 84
e 83 85
e 83 86
e 83 87
e 83 88
e 83 89
e 83 90
e 83 91
e 83 92
e 83 94
e 83 96
e 83 97
e 83 99
e 84 86
e 84 87
e 84 88
e 84 89
e 84 90
e 84 91
e 84 93
e 84 94
e 84 95
e 84 96
e 84 97
e 84 98
e 84 100
e 85 87
e 85 88
e 85 89
e 85 90
e 85 91
e 85 94
e 85 95
e 85 96
e 85 97
e 85 98
e 85 99
e 86 87
e 86 88
e 86 91
e 86 92
e 86 93
e 86 95
e 86 96
e 86 97
e 86 98
e 86 99
e 86 100
e 87 88
e 87 89
e 87 90
e 87 91
e 87 93
e 87 94
e 87 95
e 87 97
e 87 98
e 87 99
e 87 100
e 88 89
e 88 91
e 88 92
e 88 93
e 88 95
e 88 96
e 88 97
e 88 99
e 89 90
e 89 91
e 89 92
e 89 93
e 89 94
e 89 95
e 89 96
e 89 98
e 90 91
e 90 92
e 90 93
e 90 95
e 90 96
e 90 98
e 90 99
e 90 100
e 91 92
e 91 93
e 91 94
e 91 95
e 91 97
e 91 98
e 91 99
e 91 100
e 92 93
e 92 94
e 92 95
e 92 96
e 92 97
e 92 99
e 92 100
e 93 94
e 93 95
e 93 96
e 93 97
e 93 98
e 93 99
e 93 100
e 94 96
e 94 97
e 94 98
e 94 100
e 95 96
e 95 97
e 95 99
e 95 100
e 97 98
e 97 99
e 98 100
